\ENCODING=ISO-8859-1
\Problem name: inst_10_cut_n4

Maximize
 obj1: 26 x0 + 83 x1 + 66 x2 + 32 x3 + 4 x4 + 13 x5 + 53 x6 + 74 x7 + 68 x8
       + 82 x9 + 84 x10 + 89 x11
Subject To
 c0:    10 x0 + 15 x1 + 24 x2 + 78 x3 + 10 x4 + 39 x5 + 35 x6 + 78 x7 + 8 x8
        + 37 x9 + 59 x10 + 62 x11 + s0 <= 297
 c1:    12 x0 + 50 x1 + 10 x2 + 79 x3 + 74 x4 + 60 x5 + 32 x6 + 59 x7 + 31 x8
        + 45 x9 + 55 x10 + 83 x11 + s1 <= 788
 c2:    19 x0 + 14 x1 + 47 x2 + 50 x3 + 6 x4 + 82 x5 + 47 x6 + 68 x7 + 51 x8
        + 25 x9 + x10 + 59 x11 + s2 <= 10
 c3:    55 x0 + 3 x1 + 45 x2 + 99 x3 + 6 x4 + 45 x5 + 89 x6 + 41 x7 + 7 x8
        + 6 x9 + 12 x10 + 91 x11 + s3 <= 598
 c4:    73 x0 + 93 x1 + 39 x2 + 18 x3 + 32 x4 + 45 x5 + 83 x6 + 54 x7 + 24 x8
        + 46 x9 + 25 x10 + 51 x11 + s4 <= 972
 cut_1: 17 x0 + 13 x1 + 43 x2 + 46 x3 + 5 x4 + 76 x5 + 43 x6 + 63 x7 + 47 x8
        + 23 x9 - 1.99840144432528e-15 x10 + 54 x11 <= 9.00000000000001
 cut_2: 7.99999999999999 x0 + 6 x1 + 20 x2 + 21 x3 + 2 x4 + 35 x5 + 20 x6
        + 29 x7 + 21 x8 + 10 x9 - 1.77635683940025e-15 x10 + 25 x11
        <= 3.99999999999995
 cut_3: x0 + x1 + 3 x2 + 3 x3 + 5 x5 + 3 x6 + 4 x7 + 3 x8 + x9 + 4 x11 <= 0
 cut_4: 14 x0 + 11 x1 + 36 x2 + 39 x3 + 4 x4 + 64 x5 + 36 x6 + 53 x7 + 40 x8
        + 19 x9 - 7.7715611723761e-16 x10 + 46 x11 <= 6.99999999999997
Bounds
 0 <= x0 <= 1
 0 <= x1 <= 1
 0 <= x2 <= 1
 0 <= x3 <= 1
 0 <= x4 <= 1
 0 <= x5 <= 1
 0 <= x6 <= 1
 0 <= x7 <= 1
 0 <= x8 <= 1
 0 <= x9 <= 1
 0 <= x10 <= 1
 0 <= x11 <= 1
End
